15
Lattice="15.78 0.0 0.0 0.0 15.78 0.0 0.0 0.0 15.9" Properties=species:S:1:pos:R:3 pbc="F F F"
Ti       7.89000000       7.89000000       7.95000000
Ti       9.78000000       7.89000000       8.90000000
Ti       6.00000000       7.89000000       7.00000000
Ti       7.89000000       9.78000000       7.00000000
Ti       7.89000000       6.00000000       8.90000000
C        8.89000000       8.89000000       7.95000000
O        6.89000000       6.89000000       7.95000000
O        8.89000000       6.89000000       7.95000000
O        6.89000000       8.89000000       7.95000000
O        7.89000000       7.89000000       9.90000000
O        7.89000000       7.89000000       6.00000000
O        9.78000000       9.78000000       8.90000000
O        6.00000000       6.00000000       7.00000000
O        9.78000000       6.00000000       8.90000000
O        6.00000000       9.78000000       7.00000000
