12
Lattice="15.7 0.0 0.0 0.0 15.7 0.0 0.0 0.0 13.48" Properties=species:S:1:pos:R:3 pbc="F F F"
Ti       6.70000000       6.70000000       6.00000000
Ti       9.00000000       9.00000000       7.48000000
Ti       9.00000000       6.70000000       6.00000000
Ti       6.70000000       9.00000000       7.48000000
O        7.40000000       7.40000000       6.00000000
O        6.00000000       6.00000000       6.00000000
O        8.30000000       9.70000000       7.48000000
O        9.70000000       8.30000000       7.48000000
O        8.30000000       6.00000000       6.00000000
O        9.70000000       7.40000000       6.00000000
O        6.00000000       8.30000000       7.48000000
O        7.40000000       9.70000000       7.48000000
